data;
set WEIGHTS := x0 x1 x2 x3 x4 x5 x6 x7 x8 x9 x10 x11 x12 x13;
param:  cost :=
  x0  132619
  x1  566053
  x2  390301
  x3  542784
  x4  381712
  x5  913148
  x6  212773
  x7  74584
  x8  60189
  x9  310332
  x10  110200
  x11  931233
  x12  119048
  x13  342343;
param cap := 3500000;